# Solution for model dual
# Objective value = 3.2890621553884707e+03
y[0] 900
y[1] 4
y[2] 10
y[3] 2.0349378446115286e+03
gamma[0,0] 1.2857142857142854e+01
gamma[0,1] 0
gamma[1,0] 1.5789473684210525e-01
gamma[1,1] 0
gamma[2,0] 6.6666666666666777e-02
gamma[2,1] 0
gamma[3,0] 0
gamma[3,1] 0
w[0,0] 0
w[0,1] 0
w[1,0] 0
w[1,1] 0
w[2,0] 0
w[2,1] 0
w[3,0] 1.3485444380181311e+00
w[3,1] 0
sigma[0,0] 1.0285714285714285e+02
sigma[0,1] 90
sigma[1,0] 1.1578947368421053e+00
sigma[1,1] 1
sigma[2,0] 1.0666666666666669e+00
sigma[2,1] 1
sigma[3,0] 7.8266840177366490e+01
sigma[3,1] 8.8651455561981862e+01
beta[0,0] 0
beta[0,1] 0
beta[1,0] 0
beta[1,1] 0
beta[2,0] 0
beta[2,1] 0
beta[3,0] 1.1733159822633510e+01
beta[3,1] 0
